153757
0,86,43,58,65,27,26,9,57,75,23,101,73,13,46,60,102,34,74,31,62,6,52,83,32,81,71,44,24,85,45,76,5,68,87,12,30,97,105,96,7,64,51,4,54,28,29,39,55,19,15,63,89,16,20,61,21,50,99,98,67,49,25,33,82,56,79,88,92,11,22,91,8,18,41,80,1,48,36,69,93,77,95,59,2,100,37,104,103,66,94,53,70,35,40,10,38,72,47,84,17,3,14,90,78,42,0